\ Model FN
\ LP format - for model browsing. Use MPS format to capture full model detail.
Minimize
  - 50.47622500908005 wLIRA-LIMF-r0-n0 - 39.35037194219969 wLIRA-LIBD-r0-n0
   - 50.47622500908005 wLIMF-LIRA-r0-n0
   - 67.12428937557499 wLIMF-LIBD-r0-n0
   - 39.35037194219969 wLIBD-LIRA-r0-n0
   - 67.12428937557499 wLIBD-LIMF-r0-n0
   - 50.47622500908005 wLIRA-LIMF-r0-n1
   - 39.35037194219969 wLIRA-LIBD-r0-n1
   - 50.47622500908005 wLIMF-LIRA-r0-n1
   - 67.12428937557499 wLIMF-LIBD-r0-n1
   - 39.35037194219969 wLIBD-LIRA-r0-n1
   - 67.12428937557499 wLIBD-LIMF-r0-n1
   - 50.47622500908005 wLIRA-LIMF-r0-n2
   - 39.35037194219969 wLIRA-LIBD-r0-n2
   - 50.47622500908005 wLIMF-LIRA-r0-n2
   - 67.12428937557499 wLIMF-LIBD-r0-n2
   - 39.35037194219969 wLIBD-LIRA-r0-n2
   - 67.12428937557499 wLIBD-LIMF-r0-n2
   - 50.47622500908005 wLIRA-LIMF-r0-n3
   - 39.35037194219969 wLIRA-LIBD-r0-n3
   - 50.47622500908005 wLIMF-LIRA-r0-n3
   - 67.12428937557499 wLIMF-LIBD-r0-n3
   - 39.35037194219969 wLIBD-LIRA-r0-n3
   - 67.12428937557499 wLIBD-LIMF-r0-n3
   - 50.47622500908005 wLIRA-LIMF-r1-n0
   - 39.35037194219969 wLIRA-LIBD-r1-n0
   - 50.47622500908005 wLIMF-LIRA-r1-n0
   - 67.12428937557499 wLIMF-LIBD-r1-n0
   - 39.35037194219969 wLIBD-LIRA-r1-n0
   - 67.12428937557499 wLIBD-LIMF-r1-n0
   - 50.47622500908005 wLIRA-LIMF-r1-n1
   - 39.35037194219969 wLIRA-LIBD-r1-n1
   - 50.47622500908005 wLIMF-LIRA-r1-n1
   - 67.12428937557499 wLIMF-LIBD-r1-n1
   - 39.35037194219969 wLIBD-LIRA-r1-n1
   - 67.12428937557499 wLIBD-LIMF-r1-n1
   - 50.47622500908005 wLIRA-LIMF-r1-n2
   - 39.35037194219969 wLIRA-LIBD-r1-n2
   - 50.47622500908005 wLIMF-LIRA-r1-n2
   - 67.12428937557499 wLIMF-LIBD-r1-n2
   - 39.35037194219969 wLIBD-LIRA-r1-n2
   - 67.12428937557499 wLIBD-LIMF-r1-n2
   - 50.47622500908005 wLIRA-LIMF-r1-n3
   - 39.35037194219969 wLIRA-LIBD-r1-n3
   - 50.47622500908005 wLIMF-LIRA-r1-n3
   - 67.12428937557499 wLIMF-LIBD-r1-n3
   - 39.35037194219969 wLIBD-LIRA-r1-n3
   - 67.12428937557499 wLIBD-LIMF-r1-n3
   - 50.47622500908005 wLIRA-LIMF-r2-n0
   - 39.35037194219969 wLIRA-LIBD-r2-n0
   - 50.47622500908005 wLIMF-LIRA-r2-n0
   - 67.12428937557499 wLIMF-LIBD-r2-n0
   - 39.35037194219969 wLIBD-LIRA-r2-n0
   - 67.12428937557499 wLIBD-LIMF-r2-n0
   - 50.47622500908005 wLIRA-LIMF-r2-n1
   - 39.35037194219969 wLIRA-LIBD-r2-n1
   - 50.47622500908005 wLIMF-LIRA-r2-n1
   - 67.12428937557499 wLIMF-LIBD-r2-n1
   - 39.35037194219969 wLIBD-LIRA-r2-n1
   - 67.12428937557499 wLIBD-LIMF-r2-n1
   - 50.47622500908005 wLIRA-LIMF-r2-n2
   - 39.35037194219969 wLIRA-LIBD-r2-n2
   - 50.47622500908005 wLIMF-LIRA-r2-n2
   - 67.12428937557499 wLIMF-LIBD-r2-n2
   - 39.35037194219969 wLIBD-LIRA-r2-n2
   - 67.12428937557499 wLIBD-LIMF-r2-n2
   - 50.47622500908005 wLIRA-LIMF-r2-n3
   - 39.35037194219969 wLIRA-LIBD-r2-n3
   - 50.47622500908005 wLIMF-LIRA-r2-n3
   - 67.12428937557499 wLIMF-LIBD-r2-n3
   - 39.35037194219969 wLIBD-LIRA-r2-n3
   - 67.12428937557499 wLIBD-LIMF-r2-n3
   - 50.47622500908005 wLIRA-LIMF-r3-n0
   - 39.35037194219969 wLIRA-LIBD-r3-n0
   - 50.47622500908005 wLIMF-LIRA-r3-n0
   - 67.12428937557499 wLIMF-LIBD-r3-n0
   - 39.35037194219969 wLIBD-LIRA-r3-n0
   - 67.12428937557499 wLIBD-LIMF-r3-n0
   - 50.47622500908005 wLIRA-LIMF-r3-n1
   - 39.35037194219969 wLIRA-LIBD-r3-n1
   - 50.47622500908005 wLIMF-LIRA-r3-n1
   - 67.12428937557499 wLIMF-LIBD-r3-n1
   - 39.35037194219969 wLIBD-LIRA-r3-n1
   - 67.12428937557499 wLIBD-LIMF-r3-n1
   - 50.47622500908005 wLIRA-LIMF-r3-n2
   - 39.35037194219969 wLIRA-LIBD-r3-n2
   - 50.47622500908005 wLIMF-LIRA-r3-n2
   - 67.12428937557499 wLIMF-LIBD-r3-n2
   - 39.35037194219969 wLIBD-LIRA-r3-n2
   - 67.12428937557499 wLIBD-LIMF-r3-n2
   - 50.47622500908005 wLIRA-LIMF-r3-n3
   - 39.35037194219969 wLIRA-LIBD-r3-n3
   - 50.47622500908005 wLIMF-LIRA-r3-n3
   - 67.12428937557499 wLIMF-LIBD-r3-n3
   - 39.35037194219969 wLIBD-LIRA-r3-n3
   - 67.12428937557499 wLIBD-LIMF-r3-n3 - 50.47622500908005 xLIRA-LIMF-r0
   - 39.35037194219969 xLIRA-LIBD-r0 - 50.47622500908005 xLIMF-LIRA-r0
   - 67.12428937557499 xLIMF-LIBD-r0 - 39.35037194219969 xLIBD-LIRA-r0
   - 67.12428937557499 xLIBD-LIMF-r0 - 50.47622500908005 xLIRA-LIMF-r1
   - 39.35037194219969 xLIRA-LIBD-r1 - 50.47622500908005 xLIMF-LIRA-r1
   - 67.12428937557499 xLIMF-LIBD-r1 - 39.35037194219969 xLIBD-LIRA-r1
   - 67.12428937557499 xLIBD-LIMF-r1 - 50.47622500908005 xLIRA-LIMF-r2
   - 39.35037194219969 xLIRA-LIBD-r2 - 50.47622500908005 xLIMF-LIRA-r2
   - 67.12428937557499 xLIMF-LIBD-r2 - 39.35037194219969 xLIBD-LIRA-r2
   - 67.12428937557499 xLIBD-LIMF-r2 - 50.47622500908005 xLIRA-LIMF-r3
   - 39.35037194219969 xLIRA-LIBD-r3 - 50.47622500908005 xLIMF-LIRA-r3
   - 67.12428937557499 xLIMF-LIBD-r3 - 39.35037194219969 xLIBD-LIRA-r3
   - 67.12428937557499 xLIBD-LIMF-r3
   + 8910.375084359326 z-r0Regional_Turboprop
   + 14332.36653835069 z-r1Regional_Turboprop
   + 5733.514543309499 z-r2Regional_Turboprop
   + 14332.36653835069 z-r3Regional_Turboprop + 1500 ACRegional_Turboprop
Subject To
 dem1LIRA-LIRA: wLIRA-LIRA-r0-n0 + wLIRA-LIRA-r0-n1 + wLIRA-LIRA-r0-n2
   + wLIRA-LIRA-r0-n3 + wLIRA-LIRA-r1-n0 + wLIRA-LIRA-r1-n1
   + wLIRA-LIRA-r1-n2 + wLIRA-LIRA-r1-n3 + wLIRA-LIRA-r2-n0
   + wLIRA-LIRA-r2-n1 + wLIRA-LIRA-r2-n2 + wLIRA-LIRA-r2-n3
   + wLIRA-LIRA-r3-n0 + wLIRA-LIRA-r3-n1 + wLIRA-LIRA-r3-n2
   + wLIRA-LIRA-r3-n3 + xLIRA-LIRA-r0 + xLIRA-LIRA-r1 + xLIRA-LIRA-r2
   + xLIRA-LIRA-r3 <= 0
 dem1LIRA-LIMF: wLIRA-LIMF-r0-n0 + wLIRA-LIMF-r0-n1 + wLIRA-LIMF-r0-n2
   + wLIRA-LIMF-r0-n3 + wLIRA-LIMF-r1-n0 + wLIRA-LIMF-r1-n1
   + wLIRA-LIMF-r1-n2 + wLIRA-LIMF-r1-n3 + wLIRA-LIMF-r2-n0
   + wLIRA-LIMF-r2-n1 + wLIRA-LIMF-r2-n2 + wLIRA-LIMF-r2-n3
   + wLIRA-LIMF-r3-n0 + wLIRA-LIMF-r3-n1 + wLIRA-LIMF-r3-n2
   + wLIRA-LIMF-r3-n3 + xLIRA-LIMF-r0 + xLIRA-LIMF-r1 + xLIRA-LIMF-r2
   + xLIRA-LIMF-r3 <= 110.8216688451043
 dem1LIRA-LIBD: wLIRA-LIBD-r0-n0 + wLIRA-LIBD-r0-n1 + wLIRA-LIBD-r0-n2
   + wLIRA-LIBD-r0-n3 + wLIRA-LIBD-r1-n0 + wLIRA-LIBD-r1-n1
   + wLIRA-LIBD-r1-n2 + wLIRA-LIBD-r1-n3 + wLIRA-LIBD-r2-n0
   + wLIRA-LIBD-r2-n1 + wLIRA-LIBD-r2-n2 + wLIRA-LIBD-r2-n3
   + wLIRA-LIBD-r3-n0 + wLIRA-LIBD-r3-n1 + wLIRA-LIBD-r3-n2
   + wLIRA-LIBD-r3-n3 + xLIRA-LIBD-r0 + xLIRA-LIBD-r1 + xLIRA-LIBD-r2
   + xLIRA-LIBD-r3 <= 215.6576325987535
 dem1LIMF-LIRA: wLIMF-LIRA-r0-n0 + wLIMF-LIRA-r0-n1 + wLIMF-LIRA-r0-n2
   + wLIMF-LIRA-r0-n3 + wLIMF-LIRA-r1-n0 + wLIMF-LIRA-r1-n1
   + wLIMF-LIRA-r1-n2 + wLIMF-LIRA-r1-n3 + wLIMF-LIRA-r2-n0
   + wLIMF-LIRA-r2-n1 + wLIMF-LIRA-r2-n2 + wLIMF-LIRA-r2-n3
   + wLIMF-LIRA-r3-n0 + wLIMF-LIRA-r3-n1 + wLIMF-LIRA-r3-n2
   + wLIMF-LIRA-r3-n3 + xLIMF-LIRA-r0 + xLIMF-LIRA-r1 + xLIMF-LIRA-r2
   + xLIMF-LIRA-r3 <= 110.8216688451043
 dem1LIMF-LIMF: wLIMF-LIMF-r0-n0 + wLIMF-LIMF-r0-n1 + wLIMF-LIMF-r0-n2
   + wLIMF-LIMF-r0-n3 + wLIMF-LIMF-r1-n0 + wLIMF-LIMF-r1-n1
   + wLIMF-LIMF-r1-n2 + wLIMF-LIMF-r1-n3 + wLIMF-LIMF-r2-n0
   + wLIMF-LIMF-r2-n1 + wLIMF-LIMF-r2-n2 + wLIMF-LIMF-r2-n3
   + wLIMF-LIMF-r3-n0 + wLIMF-LIMF-r3-n1 + wLIMF-LIMF-r3-n2
   + wLIMF-LIMF-r3-n3 + xLIMF-LIMF-r0 + xLIMF-LIMF-r1 + xLIMF-LIMF-r2
   + xLIMF-LIMF-r3 <= 0
 dem1LIMF-LIBD: wLIMF-LIBD-r0-n0 + wLIMF-LIBD-r0-n1 + wLIMF-LIBD-r0-n2
   + wLIMF-LIBD-r0-n3 + wLIMF-LIBD-r1-n0 + wLIMF-LIBD-r1-n1
   + wLIMF-LIBD-r1-n2 + wLIMF-LIBD-r1-n3 + wLIMF-LIBD-r2-n0
   + wLIMF-LIBD-r2-n1 + wLIMF-LIBD-r2-n2 + wLIMF-LIBD-r2-n3
   + wLIMF-LIBD-r3-n0 + wLIMF-LIBD-r3-n1 + wLIMF-LIBD-r3-n2
   + wLIMF-LIBD-r3-n3 + xLIMF-LIBD-r0 + xLIMF-LIBD-r1 + xLIMF-LIBD-r2
   + xLIMF-LIBD-r3 <= 66.70536156686033
 dem1LIBD-LIRA: wLIBD-LIRA-r0-n0 + wLIBD-LIRA-r0-n1 + wLIBD-LIRA-r0-n2
   + wLIBD-LIRA-r0-n3 + wLIBD-LIRA-r1-n0 + wLIBD-LIRA-r1-n1
   + wLIBD-LIRA-r1-n2 + wLIBD-LIRA-r1-n3 + wLIBD-LIRA-r2-n0
   + wLIBD-LIRA-r2-n1 + wLIBD-LIRA-r2-n2 + wLIBD-LIRA-r2-n3
   + wLIBD-LIRA-r3-n0 + wLIBD-LIRA-r3-n1 + wLIBD-LIRA-r3-n2
   + wLIBD-LIRA-r3-n3 + xLIBD-LIRA-r0 + xLIBD-LIRA-r1 + xLIBD-LIRA-r2
   + xLIBD-LIRA-r3 <= 215.6576325987535
 dem1LIBD-LIMF: wLIBD-LIMF-r0-n0 + wLIBD-LIMF-r0-n1 + wLIBD-LIMF-r0-n2
   + wLIBD-LIMF-r0-n3 + wLIBD-LIMF-r1-n0 + wLIBD-LIMF-r1-n1
   + wLIBD-LIMF-r1-n2 + wLIBD-LIMF-r1-n3 + wLIBD-LIMF-r2-n0
   + wLIBD-LIMF-r2-n1 + wLIBD-LIMF-r2-n2 + wLIBD-LIMF-r2-n3
   + wLIBD-LIMF-r3-n0 + wLIBD-LIMF-r3-n1 + wLIBD-LIMF-r3-n2
   + wLIBD-LIMF-r3-n3 + xLIBD-LIMF-r0 + xLIBD-LIMF-r1 + xLIBD-LIMF-r2
   + xLIBD-LIMF-r3 <= 66.70536156686033
 dem1LIBD-LIBD: wLIBD-LIBD-r0-n0 + wLIBD-LIBD-r0-n1 + wLIBD-LIBD-r0-n2
   + wLIBD-LIBD-r0-n3 + wLIBD-LIBD-r1-n0 + wLIBD-LIBD-r1-n1
   + wLIBD-LIBD-r1-n2 + wLIBD-LIBD-r1-n3 + wLIBD-LIBD-r2-n0
   + wLIBD-LIBD-r2-n1 + wLIBD-LIBD-r2-n2 + wLIBD-LIBD-r2-n3
   + wLIBD-LIBD-r3-n0 + wLIBD-LIBD-r3-n1 + wLIBD-LIBD-r3-n2
   + wLIBD-LIBD-r3-n3 + xLIBD-LIBD-r0 + xLIBD-LIBD-r1 + xLIBD-LIBD-r2
   + xLIBD-LIBD-r3 <= 0
 dem2LIRA-LIRA-r0: xLIRA-LIRA-r0 <= 0
 dem2LIRA-LIRA-r1: xLIRA-LIRA-r1 <= 0
 dem2LIRA-LIRA-r2: xLIRA-LIRA-r2 <= 0
 dem2LIRA-LIRA-r3: xLIRA-LIRA-r3 <= 0
 dem2LIRA-LIMF-r0: xLIRA-LIMF-r0 <= 110.8216688451043
 dem2LIRA-LIMF-r1: xLIRA-LIMF-r1 <= 110.8216688451043
 dem2LIRA-LIMF-r2: xLIRA-LIMF-r2 <= 0
 dem2LIRA-LIMF-r3: xLIRA-LIMF-r3 <= 110.8216688451043
 dem2LIRA-LIBD-r0: xLIRA-LIBD-r0 <= 0
 dem2LIRA-LIBD-r1: xLIRA-LIBD-r1 <= 215.6576325987535
 dem2LIRA-LIBD-r2: xLIRA-LIBD-r2 <= 215.6576325987535
 dem2LIRA-LIBD-r3: xLIRA-LIBD-r3 <= 215.6576325987535
 dem2LIMF-LIRA-r0: xLIMF-LIRA-r0 <= 110.8216688451043
 dem2LIMF-LIRA-r1: xLIMF-LIRA-r1 <= 110.8216688451043
 dem2LIMF-LIRA-r2: xLIMF-LIRA-r2 <= 0
 dem2LIMF-LIRA-r3: xLIMF-LIRA-r3 <= 110.8216688451043
 dem2LIMF-LIMF-r0: xLIMF-LIMF-r0 <= 0
 dem2LIMF-LIMF-r1: xLIMF-LIMF-r1 <= 0
 dem2LIMF-LIMF-r2: xLIMF-LIMF-r2 <= 0
 dem2LIMF-LIMF-r3: xLIMF-LIMF-r3 <= 0
 dem2LIMF-LIBD-r0: xLIMF-LIBD-r0 <= 0
 dem2LIMF-LIBD-r1: xLIMF-LIBD-r1 <= 0
 dem2LIMF-LIBD-r2: xLIMF-LIBD-r2 <= 0
 dem2LIMF-LIBD-r3: xLIMF-LIBD-r3 <= 66.70536156686033
 dem2LIBD-LIRA-r0: xLIBD-LIRA-r0 <= 0
 dem2LIBD-LIRA-r1: xLIBD-LIRA-r1 <= 215.6576325987535
 dem2LIBD-LIRA-r2: xLIBD-LIRA-r2 <= 215.6576325987535
 dem2LIBD-LIRA-r3: xLIBD-LIRA-r3 <= 215.6576325987535
 dem2LIBD-LIMF-r0: xLIBD-LIMF-r0 <= 0
 dem2LIBD-LIMF-r1: xLIBD-LIMF-r1 <= 66.70536156686033
 dem2LIBD-LIMF-r2: xLIBD-LIMF-r2 <= 0
 dem2LIBD-LIMF-r3: xLIBD-LIMF-r3 <= 0
 dem2LIBD-LIBD-r0: xLIBD-LIBD-r0 <= 0
 dem2LIBD-LIBD-r1: xLIBD-LIBD-r1 <= 0
 dem2LIBD-LIBD-r2: xLIBD-LIBD-r2 <= 0
 dem2LIBD-LIBD-r3: xLIBD-LIBD-r3 <= 0
 dem3LIRA-LIRAr0n0: wLIRA-LIRA-r0-n0 <= 0
 dem3LIRA-LIRAr0n1: wLIRA-LIRA-r0-n1 <= 0
 dem3LIRA-LIRAr0n2: wLIRA-LIRA-r0-n2 <= 0
 dem3LIRA-LIRAr0n3: wLIRA-LIRA-r0-n3 <= 0
 dem3LIRA-LIRAr1n0: wLIRA-LIRA-r1-n0 <= 0
 dem3LIRA-LIRAr1n1: wLIRA-LIRA-r1-n1 <= 0
 dem3LIRA-LIRAr1n2: wLIRA-LIRA-r1-n2 <= 0
 dem3LIRA-LIRAr1n3: wLIRA-LIRA-r1-n3 <= 0
 dem3LIRA-LIRAr2n0: wLIRA-LIRA-r2-n0 <= 0
 dem3LIRA-LIRAr2n1: wLIRA-LIRA-r2-n1 <= 0
 dem3LIRA-LIRAr2n2: wLIRA-LIRA-r2-n2 <= 0
 dem3LIRA-LIRAr2n3: wLIRA-LIRA-r2-n3 <= 0
 dem3LIRA-LIRAr3n0: wLIRA-LIRA-r3-n0 <= 0
 dem3LIRA-LIRAr3n1: wLIRA-LIRA-r3-n1 <= 0
 dem3LIRA-LIRAr3n2: wLIRA-LIRA-r3-n2 <= 0
 dem3LIRA-LIRAr3n3: wLIRA-LIRA-r3-n3 <= 0
 dem3LIRA-LIMFr0n0: wLIRA-LIMF-r0-n0 <= 110.8216688451043
 dem3LIRA-LIMFr0n1: wLIRA-LIMF-r0-n1 <= 110.8216688451043
 dem3LIRA-LIMFr0n2: wLIRA-LIMF-r0-n2 <= 0
 dem3LIRA-LIMFr0n3: wLIRA-LIMF-r0-n3 <= 110.8216688451043
 dem3LIRA-LIMFr1n0: wLIRA-LIMF-r1-n0 <= 110.8216688451043
 dem3LIRA-LIMFr1n1: wLIRA-LIMF-r1-n1 <= 110.8216688451043
 dem3LIRA-LIMFr1n2: wLIRA-LIMF-r1-n2 <= 0
 dem3LIRA-LIMFr1n3: wLIRA-LIMF-r1-n3 <= 110.8216688451043
 dem3LIRA-LIMFr2n0: wLIRA-LIMF-r2-n0 <= 0
 dem3LIRA-LIMFr2n1: wLIRA-LIMF-r2-n1 <= 0
 dem3LIRA-LIMFr2n2: wLIRA-LIMF-r2-n2 <= 0
 dem3LIRA-LIMFr2n3: wLIRA-LIMF-r2-n3 <= 0
 dem3LIRA-LIMFr3n0: wLIRA-LIMF-r3-n0 <= 110.8216688451043
 dem3LIRA-LIMFr3n1: wLIRA-LIMF-r3-n1 <= 110.8216688451043
 dem3LIRA-LIMFr3n2: wLIRA-LIMF-r3-n2 <= 0
 dem3LIRA-LIMFr3n3: wLIRA-LIMF-r3-n3 <= 110.8216688451043
 dem3LIRA-LIBDr0n0: wLIRA-LIBD-r0-n0 <= 0
 dem3LIRA-LIBDr0n1: wLIRA-LIBD-r0-n1 <= 0
 dem3LIRA-LIBDr0n2: wLIRA-LIBD-r0-n2 <= 0
 dem3LIRA-LIBDr0n3: wLIRA-LIBD-r0-n3 <= 0
 dem3LIRA-LIBDr1n0: wLIRA-LIBD-r1-n0 <= 0
 dem3LIRA-LIBDr1n1: wLIRA-LIBD-r1-n1 <= 215.6576325987535
 dem3LIRA-LIBDr1n2: wLIRA-LIBD-r1-n2 <= 215.6576325987535
 dem3LIRA-LIBDr1n3: wLIRA-LIBD-r1-n3 <= 215.6576325987535
 dem3LIRA-LIBDr2n0: wLIRA-LIBD-r2-n0 <= 0
 dem3LIRA-LIBDr2n1: wLIRA-LIBD-r2-n1 <= 215.6576325987535
 dem3LIRA-LIBDr2n2: wLIRA-LIBD-r2-n2 <= 215.6576325987535
 dem3LIRA-LIBDr2n3: wLIRA-LIBD-r2-n3 <= 215.6576325987535
 dem3LIRA-LIBDr3n0: wLIRA-LIBD-r3-n0 <= 0
 dem3LIRA-LIBDr3n1: wLIRA-LIBD-r3-n1 <= 215.6576325987535
 dem3LIRA-LIBDr3n2: wLIRA-LIBD-r3-n2 <= 215.6576325987535
 dem3LIRA-LIBDr3n3: wLIRA-LIBD-r3-n3 <= 215.6576325987535
 dem3LIMF-LIRAr0n0: wLIMF-LIRA-r0-n0 <= 110.8216688451043
 dem3LIMF-LIRAr0n1: wLIMF-LIRA-r0-n1 <= 110.8216688451043
 dem3LIMF-LIRAr0n2: wLIMF-LIRA-r0-n2 <= 0
 dem3LIMF-LIRAr0n3: wLIMF-LIRA-r0-n3 <= 110.8216688451043
 dem3LIMF-LIRAr1n0: wLIMF-LIRA-r1-n0 <= 110.8216688451043
 dem3LIMF-LIRAr1n1: wLIMF-LIRA-r1-n1 <= 110.8216688451043
 dem3LIMF-LIRAr1n2: wLIMF-LIRA-r1-n2 <= 0
 dem3LIMF-LIRAr1n3: wLIMF-LIRA-r1-n3 <= 110.8216688451043
 dem3LIMF-LIRAr2n0: wLIMF-LIRA-r2-n0 <= 0
 dem3LIMF-LIRAr2n1: wLIMF-LIRA-r2-n1 <= 0
 dem3LIMF-LIRAr2n2: wLIMF-LIRA-r2-n2 <= 0
 dem3LIMF-LIRAr2n3: wLIMF-LIRA-r2-n3 <= 0
 dem3LIMF-LIRAr3n0: wLIMF-LIRA-r3-n0 <= 110.8216688451043
 dem3LIMF-LIRAr3n1: wLIMF-LIRA-r3-n1 <= 110.8216688451043
 dem3LIMF-LIRAr3n2: wLIMF-LIRA-r3-n2 <= 0
 dem3LIMF-LIRAr3n3: wLIMF-LIRA-r3-n3 <= 110.8216688451043
 dem3LIMF-LIMFr0n0: wLIMF-LIMF-r0-n0 <= 0
 dem3LIMF-LIMFr0n1: wLIMF-LIMF-r0-n1 <= 0
 dem3LIMF-LIMFr0n2: wLIMF-LIMF-r0-n2 <= 0
 dem3LIMF-LIMFr0n3: wLIMF-LIMF-r0-n3 <= 0
 dem3LIMF-LIMFr1n0: wLIMF-LIMF-r1-n0 <= 0
 dem3LIMF-LIMFr1n1: wLIMF-LIMF-r1-n1 <= 0
 dem3LIMF-LIMFr1n2: wLIMF-LIMF-r1-n2 <= 0
 dem3LIMF-LIMFr1n3: wLIMF-LIMF-r1-n3 <= 0
 dem3LIMF-LIMFr2n0: wLIMF-LIMF-r2-n0 <= 0
 dem3LIMF-LIMFr2n1: wLIMF-LIMF-r2-n1 <= 0
 dem3LIMF-LIMFr2n2: wLIMF-LIMF-r2-n2 <= 0
 dem3LIMF-LIMFr2n3: wLIMF-LIMF-r2-n3 <= 0
 dem3LIMF-LIMFr3n0: wLIMF-LIMF-r3-n0 <= 0
 dem3LIMF-LIMFr3n1: wLIMF-LIMF-r3-n1 <= 0
 dem3LIMF-LIMFr3n2: wLIMF-LIMF-r3-n2 <= 0
 dem3LIMF-LIMFr3n3: wLIMF-LIMF-r3-n3 <= 0
 dem3LIMF-LIBDr0n0: wLIMF-LIBD-r0-n0 <= 0
 dem3LIMF-LIBDr0n1: wLIMF-LIBD-r0-n1 <= 0
 dem3LIMF-LIBDr0n2: wLIMF-LIBD-r0-n2 <= 0
 dem3LIMF-LIBDr0n3: wLIMF-LIBD-r0-n3 <= 0
 dem3LIMF-LIBDr1n0: wLIMF-LIBD-r1-n0 <= 0
 dem3LIMF-LIBDr1n1: wLIMF-LIBD-r1-n1 <= 0
 dem3LIMF-LIBDr1n2: wLIMF-LIBD-r1-n2 <= 0
 dem3LIMF-LIBDr1n3: wLIMF-LIBD-r1-n3 <= 0
 dem3LIMF-LIBDr2n0: wLIMF-LIBD-r2-n0 <= 0
 dem3LIMF-LIBDr2n1: wLIMF-LIBD-r2-n1 <= 0
 dem3LIMF-LIBDr2n2: wLIMF-LIBD-r2-n2 <= 0
 dem3LIMF-LIBDr2n3: wLIMF-LIBD-r2-n3 <= 0
 dem3LIMF-LIBDr3n0: wLIMF-LIBD-r3-n0 <= 0
 dem3LIMF-LIBDr3n1: wLIMF-LIBD-r3-n1 <= 0
 dem3LIMF-LIBDr3n2: wLIMF-LIBD-r3-n2 <= 0
 dem3LIMF-LIBDr3n3: wLIMF-LIBD-r3-n3 <= 66.70536156686033
 dem3LIBD-LIRAr0n0: wLIBD-LIRA-r0-n0 <= 0
 dem3LIBD-LIRAr0n1: wLIBD-LIRA-r0-n1 <= 0
 dem3LIBD-LIRAr0n2: wLIBD-LIRA-r0-n2 <= 0
 dem3LIBD-LIRAr0n3: wLIBD-LIRA-r0-n3 <= 0
 dem3LIBD-LIRAr1n0: wLIBD-LIRA-r1-n0 <= 0
 dem3LIBD-LIRAr1n1: wLIBD-LIRA-r1-n1 <= 215.6576325987535
 dem3LIBD-LIRAr1n2: wLIBD-LIRA-r1-n2 <= 215.6576325987535
 dem3LIBD-LIRAr1n3: wLIBD-LIRA-r1-n3 <= 215.6576325987535
 dem3LIBD-LIRAr2n0: wLIBD-LIRA-r2-n0 <= 0
 dem3LIBD-LIRAr2n1: wLIBD-LIRA-r2-n1 <= 215.6576325987535
 dem3LIBD-LIRAr2n2: wLIBD-LIRA-r2-n2 <= 215.6576325987535
 dem3LIBD-LIRAr2n3: wLIBD-LIRA-r2-n3 <= 215.6576325987535
 dem3LIBD-LIRAr3n0: wLIBD-LIRA-r3-n0 <= 0
 dem3LIBD-LIRAr3n1: wLIBD-LIRA-r3-n1 <= 215.6576325987535
 dem3LIBD-LIRAr3n2: wLIBD-LIRA-r3-n2 <= 215.6576325987535
 dem3LIBD-LIRAr3n3: wLIBD-LIRA-r3-n3 <= 215.6576325987535
 dem3LIBD-LIMFr0n0: wLIBD-LIMF-r0-n0 <= 0
 dem3LIBD-LIMFr0n1: wLIBD-LIMF-r0-n1 <= 0
 dem3LIBD-LIMFr0n2: wLIBD-LIMF-r0-n2 <= 0
 dem3LIBD-LIMFr0n3: wLIBD-LIMF-r0-n3 <= 0
 dem3LIBD-LIMFr1n0: wLIBD-LIMF-r1-n0 <= 0
 dem3LIBD-LIMFr1n1: wLIBD-LIMF-r1-n1 <= 66.70536156686033
 dem3LIBD-LIMFr1n2: wLIBD-LIMF-r1-n2 <= 0
 dem3LIBD-LIMFr1n3: wLIBD-LIMF-r1-n3 <= 0
 dem3LIBD-LIMFr2n0: wLIBD-LIMF-r2-n0 <= 0
 dem3LIBD-LIMFr2n1: wLIBD-LIMF-r2-n1 <= 0
 dem3LIBD-LIMFr2n2: wLIBD-LIMF-r2-n2 <= 0
 dem3LIBD-LIMFr2n3: wLIBD-LIMF-r2-n3 <= 0
 dem3LIBD-LIMFr3n0: wLIBD-LIMF-r3-n0 <= 0
 dem3LIBD-LIMFr3n1: wLIBD-LIMF-r3-n1 <= 0
 dem3LIBD-LIMFr3n2: wLIBD-LIMF-r3-n2 <= 0
 dem3LIBD-LIMFr3n3: wLIBD-LIMF-r3-n3 <= 0
 dem3LIBD-LIBDr0n0: wLIBD-LIBD-r0-n0 <= 0
 dem3LIBD-LIBDr0n1: wLIBD-LIBD-r0-n1 <= 0
 dem3LIBD-LIBDr0n2: wLIBD-LIBD-r0-n2 <= 0
 dem3LIBD-LIBDr0n3: wLIBD-LIBD-r0-n3 <= 0
 dem3LIBD-LIBDr1n0: wLIBD-LIBD-r1-n0 <= 0
 dem3LIBD-LIBDr1n1: wLIBD-LIBD-r1-n1 <= 0
 dem3LIBD-LIBDr1n2: wLIBD-LIBD-r1-n2 <= 0
 dem3LIBD-LIBDr1n3: wLIBD-LIBD-r1-n3 <= 0
 dem3LIBD-LIBDr2n0: wLIBD-LIBD-r2-n0 <= 0
 dem3LIBD-LIBDr2n1: wLIBD-LIBD-r2-n1 <= 0
 dem3LIBD-LIBDr2n2: wLIBD-LIBD-r2-n2 <= 0
 dem3LIBD-LIBDr2n3: wLIBD-LIBD-r2-n3 <= 0
 dem3LIBD-LIBDr3n0: wLIBD-LIBD-r3-n0 <= 0
 dem3LIBD-LIBDr3n1: wLIBD-LIBD-r3-n1 <= 0
 dem3LIBD-LIBDr3n2: wLIBD-LIBD-r3-n2 <= 0
 dem3LIBD-LIBDr3n3: wLIBD-LIBD-r3-n3 <= 0
 flow1r0: wLIRA-LIRA-r0-n0 + wLIRA-LIMF-r0-n0 + wLIMF-LIRA-r0-n0
   + wLIMF-LIMF-r0-n0 + wLIBD-LIRA-r0-n0 + wLIBD-LIMF-r0-n0
   + wLIRA-LIRA-r1-n0 + wLIRA-LIMF-r1-n0 + wLIMF-LIRA-r1-n0
   + wLIMF-LIMF-r1-n0 + wLIBD-LIRA-r1-n0 + wLIBD-LIMF-r1-n0
   + wLIRA-LIRA-r2-n0 + wLIRA-LIMF-r2-n0 + wLIMF-LIRA-r2-n0
   + wLIMF-LIMF-r2-n0 + wLIBD-LIRA-r2-n0 + wLIBD-LIMF-r2-n0
   + wLIRA-LIRA-r3-n0 + wLIRA-LIMF-r3-n0 + wLIMF-LIRA-r3-n0
   + wLIMF-LIMF-r3-n0 + wLIBD-LIRA-r3-n0 + wLIBD-LIMF-r3-n0 + xLIRA-LIRA-r0
   + xLIRA-LIMF-r0 - 36 z-r0Regional_Turboprop <= 0
 flow1r1: wLIRA-LIRA-r0-n1 + wLIRA-LIMF-r0-n1 + wLIRA-LIBD-r0-n1
   + wLIMF-LIRA-r0-n1 + wLIMF-LIMF-r0-n1 + wLIMF-LIBD-r0-n1
   + wLIBD-LIRA-r0-n1 + wLIBD-LIMF-r0-n1 + wLIBD-LIBD-r0-n1
   + wLIRA-LIRA-r1-n1 + wLIRA-LIMF-r1-n1 + wLIRA-LIBD-r1-n1
   + wLIMF-LIRA-r1-n1 + wLIMF-LIMF-r1-n1 + wLIMF-LIBD-r1-n1
   + wLIBD-LIRA-r1-n1 + wLIBD-LIMF-r1-n1 + wLIBD-LIBD-r1-n1
   + wLIRA-LIRA-r2-n1 + wLIRA-LIMF-r2-n1 + wLIRA-LIBD-r2-n1
   + wLIMF-LIRA-r2-n1 + wLIMF-LIMF-r2-n1 + wLIMF-LIBD-r2-n1
   + wLIBD-LIRA-r2-n1 + wLIBD-LIMF-r2-n1 + wLIBD-LIBD-r2-n1
   + wLIRA-LIRA-r3-n1 + wLIRA-LIMF-r3-n1 + wLIRA-LIBD-r3-n1
   + wLIMF-LIRA-r3-n1 + wLIMF-LIMF-r3-n1 + wLIMF-LIBD-r3-n1
   + wLIBD-LIRA-r3-n1 + wLIBD-LIMF-r3-n1 + wLIBD-LIBD-r3-n1 + xLIRA-LIRA-r1
   + xLIRA-LIMF-r1 + xLIRA-LIBD-r1 - 36 z-r1Regional_Turboprop <= 0
 flow1r2: wLIRA-LIRA-r0-n2 + wLIRA-LIBD-r0-n2 + wLIMF-LIRA-r0-n2
   + wLIMF-LIBD-r0-n2 + wLIBD-LIRA-r0-n2 + wLIBD-LIBD-r0-n2
   + wLIRA-LIRA-r1-n2 + wLIRA-LIBD-r1-n2 + wLIMF-LIRA-r1-n2
   + wLIMF-LIBD-r1-n2 + wLIBD-LIRA-r1-n2 + wLIBD-LIBD-r1-n2
   + wLIRA-LIRA-r2-n2 + wLIRA-LIBD-r2-n2 + wLIMF-LIRA-r2-n2
   + wLIMF-LIBD-r2-n2 + wLIBD-LIRA-r2-n2 + wLIBD-LIBD-r2-n2
   + wLIRA-LIRA-r3-n2 + wLIRA-LIBD-r3-n2 + wLIMF-LIRA-r3-n2
   + wLIMF-LIBD-r3-n2 + wLIBD-LIRA-r3-n2 + wLIBD-LIBD-r3-n2 + xLIRA-LIRA-r2
   + xLIRA-LIBD-r2 - 36 z-r2Regional_Turboprop <= 0
 flow1r3: wLIRA-LIRA-r0-n3 + wLIRA-LIMF-r0-n3 + wLIRA-LIBD-r0-n3
   + wLIMF-LIRA-r0-n3 + wLIMF-LIMF-r0-n3 + wLIMF-LIBD-r0-n3
   + wLIBD-LIRA-r0-n3 + wLIBD-LIMF-r0-n3 + wLIBD-LIBD-r0-n3
   + wLIRA-LIRA-r1-n3 + wLIRA-LIMF-r1-n3 + wLIRA-LIBD-r1-n3
   + wLIMF-LIRA-r1-n3 + wLIMF-LIMF-r1-n3 + wLIMF-LIBD-r1-n3
   + wLIBD-LIRA-r1-n3 + wLIBD-LIMF-r1-n3 + wLIBD-LIBD-r1-n3
   + wLIRA-LIRA-r2-n3 + wLIRA-LIMF-r2-n3 + wLIRA-LIBD-r2-n3
   + wLIMF-LIRA-r2-n3 + wLIMF-LIMF-r2-n3 + wLIMF-LIBD-r2-n3
   + wLIBD-LIRA-r2-n3 + wLIBD-LIMF-r2-n3 + wLIBD-LIBD-r2-n3
   + wLIRA-LIRA-r3-n3 + wLIRA-LIMF-r3-n3 + wLIRA-LIBD-r3-n3
   + wLIMF-LIRA-r3-n3 + wLIMF-LIMF-r3-n3 + wLIMF-LIBD-r3-n3
   + wLIBD-LIRA-r3-n3 + wLIBD-LIMF-r3-n3 + wLIBD-LIBD-r3-n3 + xLIRA-LIRA-r3
   + xLIRA-LIMF-r3 + xLIRA-LIBD-r3 - 36 z-r3Regional_Turboprop <= 0
 flow2r0: wLIRA-LIRA-r0-n0 + 2 wLIMF-LIRA-r0-n0 + wLIMF-LIMF-r0-n0
   + wLIMF-LIBD-r0-n0 + wLIBD-LIRA-r0-n0 + wLIMF-LIRA-r0-n1
   + wLIMF-LIMF-r0-n1 + wLIMF-LIBD-r0-n1 + wLIMF-LIRA-r0-n2
   + wLIMF-LIMF-r0-n2 + wLIMF-LIBD-r0-n2 + wLIMF-LIRA-r0-n3
   + wLIMF-LIMF-r0-n3 + wLIMF-LIBD-r0-n3 + wLIRA-LIRA-r1-n0
   + wLIMF-LIRA-r1-n0 + wLIBD-LIRA-r1-n0 + wLIRA-LIRA-r2-n0
   + wLIMF-LIRA-r2-n0 + wLIBD-LIRA-r2-n0 + wLIRA-LIRA-r3-n0
   + wLIMF-LIRA-r3-n0 + wLIBD-LIRA-r3-n0 + xLIRA-LIRA-r0 + 2 xLIMF-LIRA-r0
   + xLIMF-LIMF-r0 - 36 z-r0Regional_Turboprop <= 0
 flow2r1: wLIRA-LIMF-r0-n1 + wLIMF-LIMF-r0-n1 + wLIBD-LIMF-r0-n1
   + wLIBD-LIRA-r1-n0 + wLIBD-LIMF-r1-n0 + wLIBD-LIBD-r1-n0
   + wLIRA-LIMF-r1-n1 + wLIMF-LIMF-r1-n1 + wLIBD-LIRA-r1-n1
   + 2 wLIBD-LIMF-r1-n1 + wLIBD-LIBD-r1-n1 + wLIBD-LIRA-r1-n2
   + wLIBD-LIMF-r1-n2 + wLIBD-LIBD-r1-n2 + wLIBD-LIRA-r1-n3
   + wLIBD-LIMF-r1-n3 + wLIBD-LIBD-r1-n3 + wLIRA-LIMF-r2-n1
   + wLIMF-LIMF-r2-n1 + wLIBD-LIMF-r2-n1 + wLIRA-LIMF-r3-n1
   + wLIMF-LIMF-r3-n1 + wLIBD-LIMF-r3-n1 + xLIRA-LIMF-r1 + xLIBD-LIRA-r1
   + xLIBD-LIMF-r1 - 36 z-r1Regional_Turboprop <= 0
 flow31r0: wLIRA-LIRA-r0-n0 + wLIRA-LIMF-r0-n0 + wLIRA-LIBD-r0-n0
   + wLIRA-LIRA-r0-n1 + wLIRA-LIMF-r0-n1 + wLIRA-LIBD-r0-n1
   + wLIRA-LIRA-r0-n2 + wLIRA-LIMF-r0-n2 + wLIRA-LIBD-r0-n2
   + wLIRA-LIRA-r0-n3 + wLIRA-LIMF-r0-n3 + wLIRA-LIBD-r0-n3 + xLIRA-LIRA-r0
   - 36 z-r0Regional_Turboprop <= 0
 flow31r1: wLIRA-LIRA-r1-n0 + wLIRA-LIMF-r1-n0 + wLIRA-LIBD-r1-n0
   + wLIMF-LIRA-r1-n0 + wLIMF-LIMF-r1-n0 + wLIMF-LIBD-r1-n0
   + wLIBD-LIRA-r1-n0 + wLIBD-LIMF-r1-n0 + wLIBD-LIBD-r1-n0
   + wLIRA-LIRA-r1-n1 + wLIRA-LIMF-r1-n1 + wLIRA-LIBD-r1-n1
   + wLIMF-LIRA-r1-n1 + wLIMF-LIMF-r1-n1 + wLIMF-LIBD-r1-n1
   + wLIBD-LIRA-r1-n1 + wLIBD-LIMF-r1-n1 + wLIBD-LIBD-r1-n1
   + wLIRA-LIRA-r1-n2 + wLIRA-LIMF-r1-n2 + wLIRA-LIBD-r1-n2
   + wLIMF-LIRA-r1-n2 + wLIMF-LIMF-r1-n2 + wLIMF-LIBD-r1-n2
   + wLIBD-LIRA-r1-n2 + wLIBD-LIMF-r1-n2 + wLIBD-LIBD-r1-n2
   + wLIRA-LIRA-r1-n3 + wLIRA-LIMF-r1-n3 + wLIRA-LIBD-r1-n3
   + wLIMF-LIRA-r1-n3 + wLIMF-LIMF-r1-n3 + wLIMF-LIBD-r1-n3
   + wLIBD-LIRA-r1-n3 + wLIBD-LIMF-r1-n3 + wLIBD-LIBD-r1-n3 + xLIRA-LIRA-r1
   + xLIMF-LIRA-r1 + xLIBD-LIRA-r1 - 36 z-r1Regional_Turboprop <= 0
 flow32r0: wLIRA-LIRA-r0-n0 + wLIRA-LIMF-r0-n0 + wLIRA-LIBD-r0-n0
   + wLIMF-LIRA-r0-n0 + wLIMF-LIMF-r0-n0 + wLIMF-LIBD-r0-n0
   + wLIRA-LIRA-r0-n1 + wLIRA-LIMF-r0-n1 + wLIRA-LIBD-r0-n1
   + wLIMF-LIRA-r0-n1 + wLIMF-LIMF-r0-n1 + wLIMF-LIBD-r0-n1
   + wLIRA-LIRA-r0-n2 + wLIRA-LIMF-r0-n2 + wLIRA-LIBD-r0-n2
   + wLIMF-LIRA-r0-n2 + wLIMF-LIMF-r0-n2 + wLIMF-LIBD-r0-n2
   + wLIRA-LIRA-r0-n3 + wLIRA-LIMF-r0-n3 + wLIRA-LIBD-r0-n3
   + wLIMF-LIRA-r0-n3 + wLIMF-LIMF-r0-n3 + wLIMF-LIBD-r0-n3 + xLIRA-LIRA-r0
   + xLIMF-LIRA-r0 - 36 z-r0Regional_Turboprop <= 0
 flow32r1: wLIRA-LIRA-r1-n0 + wLIRA-LIMF-r1-n0 + wLIRA-LIBD-r1-n0
   + wLIBD-LIRA-r1-n0 + wLIBD-LIMF-r1-n0 + wLIBD-LIBD-r1-n0
   + wLIRA-LIRA-r1-n1 + wLIRA-LIMF-r1-n1 + wLIRA-LIBD-r1-n1
   + wLIBD-LIRA-r1-n1 + wLIBD-LIMF-r1-n1 + wLIBD-LIBD-r1-n1
   + wLIRA-LIRA-r1-n2 + wLIRA-LIMF-r1-n2 + wLIRA-LIBD-r1-n2
   + wLIBD-LIRA-r1-n2 + wLIBD-LIMF-r1-n2 + wLIBD-LIBD-r1-n2
   + wLIRA-LIRA-r1-n3 + wLIRA-LIMF-r1-n3 + wLIRA-LIBD-r1-n3
   + wLIBD-LIRA-r1-n3 + wLIBD-LIMF-r1-n3 + wLIBD-LIBD-r1-n3 + xLIRA-LIRA-r1
   + xLIBD-LIRA-r1 - 36 z-r1Regional_Turboprop <= 0
 ACProductivityRegional_Turboprop: 2.833417527353384 z-r0Regional_Turboprop
   + 4.467141759450211 z-r1Regional_Turboprop
   + 2.120317518139057 z-r2Regional_Turboprop
   + 4.467141759450211 z-r3Regional_Turboprop - 70 ACRegional_Turboprop
   <= 0
 runwayLIBD-LIBDRegional_Turboprop: z-r0Regional_Turboprop <= 10000
 runwayLIBD-LIBDRegional_Turboprop: z-r1Regional_Turboprop <= 10000
 runwayLIBD-LIBDRegional_Turboprop: z-r2Regional_Turboprop <= 10000
 runwayLIBD-LIBDRegional_Turboprop: z-r3Regional_Turboprop <= 10000
 rangeLIBD-LIBDRegional_Turboprop: z-r0Regional_Turboprop <= 10000
 rangeLIBD-LIBDRegional_Turboprop: z-r1Regional_Turboprop <= 10000
 rangeLIBD-LIBDRegional_Turboprop: z-r2Regional_Turboprop <= 10000
 rangeLIBD-LIBDRegional_Turboprop: z-r3Regional_Turboprop <= 10000
Bounds
Generals
 wLIRA-LIRA-r0-n0 wLIRA-LIMF-r0-n0 wLIRA-LIBD-r0-n0 wLIMF-LIRA-r0-n0
 wLIMF-LIMF-r0-n0 wLIMF-LIBD-r0-n0 wLIBD-LIRA-r0-n0 wLIBD-LIMF-r0-n0
 wLIBD-LIBD-r0-n0 wLIRA-LIRA-r0-n1 wLIRA-LIMF-r0-n1 wLIRA-LIBD-r0-n1
 wLIMF-LIRA-r0-n1 wLIMF-LIMF-r0-n1 wLIMF-LIBD-r0-n1 wLIBD-LIRA-r0-n1
 wLIBD-LIMF-r0-n1 wLIBD-LIBD-r0-n1 wLIRA-LIRA-r0-n2 wLIRA-LIMF-r0-n2
 wLIRA-LIBD-r0-n2 wLIMF-LIRA-r0-n2 wLIMF-LIMF-r0-n2 wLIMF-LIBD-r0-n2
 wLIBD-LIRA-r0-n2 wLIBD-LIMF-r0-n2 wLIBD-LIBD-r0-n2 wLIRA-LIRA-r0-n3
 wLIRA-LIMF-r0-n3 wLIRA-LIBD-r0-n3 wLIMF-LIRA-r0-n3 wLIMF-LIMF-r0-n3
 wLIMF-LIBD-r0-n3 wLIBD-LIRA-r0-n3 wLIBD-LIMF-r0-n3 wLIBD-LIBD-r0-n3
 wLIRA-LIRA-r1-n0 wLIRA-LIMF-r1-n0 wLIRA-LIBD-r1-n0 wLIMF-LIRA-r1-n0
 wLIMF-LIMF-r1-n0 wLIMF-LIBD-r1-n0 wLIBD-LIRA-r1-n0 wLIBD-LIMF-r1-n0
 wLIBD-LIBD-r1-n0 wLIRA-LIRA-r1-n1 wLIRA-LIMF-r1-n1 wLIRA-LIBD-r1-n1
 wLIMF-LIRA-r1-n1 wLIMF-LIMF-r1-n1 wLIMF-LIBD-r1-n1 wLIBD-LIRA-r1-n1
 wLIBD-LIMF-r1-n1 wLIBD-LIBD-r1-n1 wLIRA-LIRA-r1-n2 wLIRA-LIMF-r1-n2
 wLIRA-LIBD-r1-n2 wLIMF-LIRA-r1-n2 wLIMF-LIMF-r1-n2 wLIMF-LIBD-r1-n2
 wLIBD-LIRA-r1-n2 wLIBD-LIMF-r1-n2 wLIBD-LIBD-r1-n2 wLIRA-LIRA-r1-n3
 wLIRA-LIMF-r1-n3 wLIRA-LIBD-r1-n3 wLIMF-LIRA-r1-n3 wLIMF-LIMF-r1-n3
 wLIMF-LIBD-r1-n3 wLIBD-LIRA-r1-n3 wLIBD-LIMF-r1-n3 wLIBD-LIBD-r1-n3
 wLIRA-LIRA-r2-n0 wLIRA-LIMF-r2-n0 wLIRA-LIBD-r2-n0 wLIMF-LIRA-r2-n0
 wLIMF-LIMF-r2-n0 wLIMF-LIBD-r2-n0 wLIBD-LIRA-r2-n0 wLIBD-LIMF-r2-n0
 wLIBD-LIBD-r2-n0 wLIRA-LIRA-r2-n1 wLIRA-LIMF-r2-n1 wLIRA-LIBD-r2-n1
 wLIMF-LIRA-r2-n1 wLIMF-LIMF-r2-n1 wLIMF-LIBD-r2-n1 wLIBD-LIRA-r2-n1
 wLIBD-LIMF-r2-n1 wLIBD-LIBD-r2-n1 wLIRA-LIRA-r2-n2 wLIRA-LIMF-r2-n2
 wLIRA-LIBD-r2-n2 wLIMF-LIRA-r2-n2 wLIMF-LIMF-r2-n2 wLIMF-LIBD-r2-n2
 wLIBD-LIRA-r2-n2 wLIBD-LIMF-r2-n2 wLIBD-LIBD-r2-n2 wLIRA-LIRA-r2-n3
 wLIRA-LIMF-r2-n3 wLIRA-LIBD-r2-n3 wLIMF-LIRA-r2-n3 wLIMF-LIMF-r2-n3
 wLIMF-LIBD-r2-n3 wLIBD-LIRA-r2-n3 wLIBD-LIMF-r2-n3 wLIBD-LIBD-r2-n3
 wLIRA-LIRA-r3-n0 wLIRA-LIMF-r3-n0 wLIRA-LIBD-r3-n0 wLIMF-LIRA-r3-n0
 wLIMF-LIMF-r3-n0 wLIMF-LIBD-r3-n0 wLIBD-LIRA-r3-n0 wLIBD-LIMF-r3-n0
 wLIBD-LIBD-r3-n0 wLIRA-LIRA-r3-n1 wLIRA-LIMF-r3-n1 wLIRA-LIBD-r3-n1
 wLIMF-LIRA-r3-n1 wLIMF-LIMF-r3-n1 wLIMF-LIBD-r3-n1 wLIBD-LIRA-r3-n1
 wLIBD-LIMF-r3-n1 wLIBD-LIBD-r3-n1 wLIRA-LIRA-r3-n2 wLIRA-LIMF-r3-n2
 wLIRA-LIBD-r3-n2 wLIMF-LIRA-r3-n2 wLIMF-LIMF-r3-n2 wLIMF-LIBD-r3-n2
 wLIBD-LIRA-r3-n2 wLIBD-LIMF-r3-n2 wLIBD-LIBD-r3-n2 wLIRA-LIRA-r3-n3
 wLIRA-LIMF-r3-n3 wLIRA-LIBD-r3-n3 wLIMF-LIRA-r3-n3 wLIMF-LIMF-r3-n3
 wLIMF-LIBD-r3-n3 wLIBD-LIRA-r3-n3 wLIBD-LIMF-r3-n3 wLIBD-LIBD-r3-n3
 xLIRA-LIRA-r0 xLIRA-LIMF-r0 xLIRA-LIBD-r0 xLIMF-LIRA-r0 xLIMF-LIMF-r0
 xLIMF-LIBD-r0 xLIBD-LIRA-r0 xLIBD-LIMF-r0 xLIBD-LIBD-r0 xLIRA-LIRA-r1
 xLIRA-LIMF-r1 xLIRA-LIBD-r1 xLIMF-LIRA-r1 xLIMF-LIMF-r1 xLIMF-LIBD-r1
 xLIBD-LIRA-r1 xLIBD-LIMF-r1 xLIBD-LIBD-r1 xLIRA-LIRA-r2 xLIRA-LIMF-r2
 xLIRA-LIBD-r2 xLIMF-LIRA-r2 xLIMF-LIMF-r2 xLIMF-LIBD-r2 xLIBD-LIRA-r2
 xLIBD-LIMF-r2 xLIBD-LIBD-r2 xLIRA-LIRA-r3 xLIRA-LIMF-r3 xLIRA-LIBD-r3
 xLIMF-LIRA-r3 xLIMF-LIMF-r3 xLIMF-LIBD-r3 xLIBD-LIRA-r3 xLIBD-LIMF-r3
 xLIBD-LIBD-r3 z-r0Regional_Turboprop z-r1Regional_Turboprop
 z-r2Regional_Turboprop z-r3Regional_Turboprop ACRegional_Turboprop
End
